c WARNING: for repeatability, setting FPU to use double precision
d VARIABLES            228738       
d CONSTRAINTS          847176       
c ============================[ Problem Statistics ]=============================
c |                                                                             |
c |  Number of variables:        228738                                         |
c |  Number of clauses:          847176                                         |
c |  Parse time:                   0.14 s                                       |
c |                                                                             |
c ============================[ Search Statistics ]==============================
c | Conflicts |          ORIGINAL         |          LEARNT          | Progress |
c |           |    Vars  Clauses Literals |    Limit  Clauses Lit/Cl |          |
c ===============================================================================
c |       100 |  188478   742754  1863597 |   272343       99     13 | 17.601 % |
c |       250 |  188478   742754  1863597 |   299577      249     10 | 17.601 % |
c |       475 |  188478   742754  1863597 |   329535      474     14 | 17.601 % |
c |       812 |  188478   742750  1863587 |   362488      811     15 | 17.601 % |
c |      1318 |  188478   742750  1863587 |   398737     1317     12 | 17.601 % |
c |      2077 |  188478   742750  1863587 |   438611     2076     11 | 17.601 % |
c |      3216 |  188478   742750  1863587 |   482472     3215     11 | 17.601 % |
c |      4924 |  188478   742750  1863587 |   530719     4923     12 | 17.601 % |
c |      7486 |  188478   742750  1863587 |   583791     7485     29 | 17.601 % |
c |     11330 |  188478   742750  1863587 |   642170    11329     40 | 17.601 % |
c |     17096 |  188478   742750  1863587 |   706387    17095     69 | 17.601 % |
c |     25745 |  188478   742750  1863587 |   777026    25744     83 | 17.601 % |
c |     38719 |  188478   742750  1863587 |   854729    38718    104 | 17.601 % |
c |     58180 |  188478   742750  1863587 |   940202    58179    125 | 17.601 % |
c |     87372 |  188478   742750  1863587 |  1034222    87371    125 | 17.601 % |
c |    131161 |  188478   742750  1863587 |  1137644   131160    155 | 17.601 % |
c |    196845 |  188478   742750  1863587 |  1251409   196844    154 | 17.601 % |
c |    295371 |  188478   742750  1863587 |  1376550   295370    163 | 17.601 % |
c |    443160 |  188478   742750  1863587 |  1514205   443159    171 | 17.601 % |
c |    664843 |  188478   742750  1863587 |  1665625   664842    181 | 17.601 % |
c |    997368 |  188478   742750  1863587 |  1832188   997367    186 | 17.601 % |
c |   1496156 |  188478   742750  1863587 |  2015407  1496155    208 | 17.601 % |
c ===============================================================================
c restarts              : 3708
c conflicts             : 1911018        (1435 /sec)
c decisions             : 7638249        (0.00 % random) (5736 /sec)
c propagations          : 2721121443     (2043456 /sec)
c conflict literals     : 405316615      (25.98 % deleted)
d RESTARTS             3708
d FAILURES             1911018      
d NODES                7638249      
d BACKTRACKS           7638249      
d PROPAGATIONS         2721121443   
d NOGOODSIZE           212.09 
d MEMORY               2537.00 
d TIME                 1331.63 

s SATISFIABLE
